p cnf 10 50
3 -2 -5 0
-8 -1 -10 0
-7 -4 -1 0
1 -4 -5 0
6 7 3 0
9 -2 -5 0
5 3 6 0
-2 -8 9 0
-6 4 5 0
3 -5 7 0
-8 -4 -9 0
9 -1 -3 0
-3 -2 8 0
2 6 -8 0
-4 -8 -6 0
10 4 1 0
1 4 9 0
-1 -3 -9 0
-6 -10 -4 0
6 10 -2 0
-5 1 -2 0
-4 -5 8 0
-8 10 3 0
-5 2 -1 0
-7 1 -5 0
4 1 -8 0
3 8 10 0
-2 -3 -7 0
-6 8 -9 0
-5 -8 4 0
9 5 4 0
-9 3 -5 0
-1 -8 7 0
2 6 -8 0
6 7 -9 0
-7 3 -10 0
-1 7 -10 0
1 7 -4 0
6 -2 -1 0
-10 -2 -8 0
-6 -1 10 0
-6 10 9 0
-8 -1 -5 0
-9 -8 7 0
3 4 5 0
9 7 8 0
7 -6 -9 0
2 8 1 0
-7 5 10 0
3 10 5 0